Set parameter TokenServer to value "hpc-licenses.hpcc.usc.edu"
Set parameter TimeLimit to value 3600
Gurobi Optimizer version 9.5.1 build v9.5.1rc2 (linux64)
Thread count: 20 physical cores, 20 logical processors, using up to 20 threads
Optimize a model with 6007 rows, 4529 columns and 24534 nonzeros
Model fingerprint: 0x430bff07
Variable types: 4506 continuous, 23 integer (23 binary)
Coefficient statistics:
  Matrix range     [1e+00, 1e+00]
  Objective range  [1e-02, 1e+00]
  Bounds range     [1e+00, 1e+00]
  RHS range        [1e+00, 3e+01]
Presolve removed 1514 rows and 1511 columns
Presolve time: 0.09s
Presolved: 4493 rows, 3018 columns, 21993 nonzeros
Variable types: 2998 continuous, 20 integer (20 binary)
Found heuristic solution: objective 255.8293927

Root relaxation: objective 2.586715e+02, 2182 iterations, 0.10 seconds (0.09 work units)

    Nodes    |    Current Node    |     Objective Bounds      |     Work
 Expl Unexpl |  Obj  Depth IntInf | Incumbent    BestBd   Gap | It/Node Time

     0     0  258.67152    0    3  255.82939  258.67152  1.11%     -    0s
     0     0  258.49462    0    3  255.82939  258.49462  1.04%     -    0s
     0     0  258.41832    0    3  255.82939  258.41832  1.01%     -    0s
     0     0  258.25996    0    3  255.82939  258.25996  0.95%     -    0s
     0     0  258.12575    0    3  255.82939  258.12575  0.90%     -    0s
H    0     0                     257.8578078  258.12575  0.10%     -    0s
     0     0  257.85781    0    3  257.85781  257.85781  0.00%     -    0s

Cutting planes:
  Gomory: 7
  MIR: 138
  RLT: 16

Explored 1 nodes (2775 simplex iterations) in 0.63 seconds (0.38 work units)
Thread count was 20 (of 20 available processors)

Solution count 2: 257.858 255.829 

Optimal solution found (tolerance 1.00e-04)
Best objective 2.578578077639e+02, best bound 2.578578077639e+02, gap 0.0000%



#########node  1
V1.9
#########node  2
0.43396226415094336,0.5660377358490566
#########node  3
1.0,0.0


Total Solving Time 1.0608227252960205
obj value 257.8578077638576
Policy Regret train (Sum) 1.515319924254638
Best Treatment Found train (%) 88.8
treatment classification acc train (%) 56.2
Policy Regret test (Sum) 145.29074060878332
Best Treatment Found test (%) 59.919999999999995
treatment classification acc test (%) 57.89
